(set-logic QF_SLIA)
(set-option :produce-models true)
(declare-const X String)
; User-Agent\x3A\w+\u{0d}\u{0a}subject=GhostVoice
(assert (str.in_re X (re.++ (str.to_re "User-Agent:") (re.+ (re.union (re.range "0" "9") (re.range "A" "Z") (re.range "a" "z") (str.to_re "_"))) (str.to_re "\u{0d}\u{0a}subject=GhostVoice\u{0a}"))))
; /filename=[^\n]*\u{2e}pkp/i
(assert (not (str.in_re X (re.++ (str.to_re "/filename=") (re.* (re.comp (str.to_re "\u{0a}"))) (str.to_re ".pkp/i\u{0a}")))))
; ^\(?082|083|084|072\)?[\s-]?[\d]{3}[\s-]?[\d]{4}$
(assert (str.in_re X (re.union (re.++ (re.opt (str.to_re "(")) (str.to_re "082")) (str.to_re "083") (str.to_re "084") (re.++ (str.to_re "072") (re.opt (str.to_re ")")) (re.opt (re.union (str.to_re "-") (str.to_re " ") (str.to_re "\u{09}") (str.to_re "\u{0a}") (str.to_re "\u{0c}") (str.to_re "\u{0d}"))) ((_ re.loop 3 3) (re.range "0" "9")) (re.opt (re.union (str.to_re "-") (str.to_re " ") (str.to_re "\u{09}") (str.to_re "\u{0a}") (str.to_re "\u{0c}") (str.to_re "\u{0d}"))) ((_ re.loop 4 4) (re.range "0" "9")) (str.to_re "\u{0a}")))))
(check-sat)
